c Reduced graph for queen14_14 generated by Cyril Grelier
p edge 196 4186
e 1 6
e 1 7
e 1 18
e 1 19
e 1 30
e 1 40
e 1 43
e 1 45
e 1 51
e 1 55
e 1 64
e 1 68
e 1 71
e 1 73
e 1 77
e 1 81
e 1 82
e 1 83
e 1 88
e 1 90
e 1 91
e 1 94
e 1 95
e 1 105
e 1 106
e 1 108
e 1 110
e 1 120
e 1 123
e 1 124
e 1 127
e 1 128
e 1 130
e 1 136
e 1 138
e 1 142
e 1 143
e 1 151
e 1 153
e 1 154
e 1 158
e 1 165
e 1 167
e 1 170
e 1 176
e 1 179
e 1 185
e 1 188
e 1 196
e 2 18
e 2 20
e 2 22
e 2 30
e 2 31
e 2 34
e 2 39
e 2 43
e 2 50
e 2 54
e 2 61
e 2 67
e 2 69
e 2 74
e 2 75
e 2 76
e 2 78
e 2 80
e 2 84
e 2 85
e 2 94
e 2 96
e 2 99
e 2 101
e 2 102
e 2 106
e 2 109
e 2 112
e 2 120
e 2 122
e 2 127
e 2 133
e 2 139
e 2 141
e 2 145
e 2 150
e 2 151
e 2 153
e 2 155
e 2 172
e 2 173
e 2 181
e 2 185
e 2 187
e 2 189
e 2 192
e 2 194
e 3 4
e 3 5
e 3 8
e 3 11
e 3 15
e 3 18
e 3 21
e 3 26
e 3 31
e 3 32
e 3 34
e 3 35
e 3 37
e 3 44
e 3 45
e 3 52
e 3 56
e 3 60
e 3 64
e 3 68
e 3 74
e 3 76
e 3 83
e 3 84
e 3 85
e 3 91
e 3 93
e 3 95
e 3 100
e 3 104
e 3 105
e 3 106
e 3 107
e 3 110
e 3 112
e 3 116
e 3 117
e 3 118
e 3 119
e 3 121
e 3 126
e 3 129
e 3 135
e 3 172
e 3 181
e 3 182
e 3 191
e 4 12
e 4 20
e 4 21
e 4 25
e 4 32
e 4 45
e 4 48
e 4 53
e 4 56
e 4 59
e 4 69
e 4 71
e 4 83
e 4 84
e 4 86
e 4 95
e 4 98
e 4 100
e 4 106
e 4 110
e 4 111
e 4 112
e 4 114
e 4 117
e 4 119
e 4 126
e 4 127
e 4 132
e 4 133
e 4 134
e 4 135
e 4 137
e 4 139
e 4 143
e 4 150
e 4 154
e 4 160
e 4 163
e 4 164
e 4 184
e 4 188
e 4 190
e 4 191
e 4 196
e 5 6
e 5 7
e 5 8
e 5 18
e 5 22
e 5 23
e 5 25
e 5 26
e 5 46
e 5 47
e 5 52
e 5 60
e 5 65
e 5 66
e 5 67
e 5 76
e 5 78
e 5 79
e 5 99
e 5 103
e 5 104
e 5 105
e 5 111
e 5 113
e 5 118
e 5 119
e 5 120
e 5 125
e 5 129
e 5 140
e 5 141
e 5 164
e 5 165
e 5 166
e 5 172
e 5 175
e 5 176
e 5 178
e 5 182
e 5 191
e 5 192
e 5 194
e 6 7
e 6 18
e 6 20
e 6 22
e 6 25
e 6 27
e 6 38
e 6 39
e 6 43
e 6 44
e 6 51
e 6 65
e 6 66
e 6 79
e 6 82
e 6 83
e 6 87
e 6 89
e 6 91
e 6 92
e 6 99
e 6 116
e 6 120
e 6 124
e 6 125
e 6 130
e 6 140
e 6 143
e 6 152
e 6 153
e 6 156
e 6 157
e 6 173
e 6 175
e 6 176
e 6 184
e 6 186
e 6 187
e 6 190
e 6 191
e 6 196
e 7 18
e 7 20
e 7 23
e 7 27
e 7 29
e 7 31
e 7 33
e 7 39
e 7 46
e 7 52
e 7 62
e 7 68
e 7 71
e 7 73
e 7 78
e 7 82
e 7 87
e 7 90
e 7 92
e 7 94
e 7 95
e 7 103
e 7 111
e 7 122
e 7 123
e 7 128
e 7 135
e 7 141
e 7 142
e 7 151
e 7 152
e 7 161
e 7 163
e 7 164
e 7 165
e 7 166
e 7 167
e 7 178
e 7 188
e 7 194
e 8 9
e 8 10
e 8 13
e 8 18
e 8 25
e 8 26
e 8 39
e 8 40
e 8 60
e 8 72
e 8 73
e 8 74
e 8 76
e 8 87
e 8 88
e 8 104
e 8 105
e 8 112
e 8 113
e 8 118
e 8 119
e 8 122
e 8 125
e 8 129
e 8 130
e 8 131
e 8 132
e 8 156
e 8 159
e 8 160
e 8 162
e 8 166
e 8 172
e 8 179
e 8 182
e 8 192
e 8 193
e 8 194
e 8 195
e 9 10
e 9 11
e 9 23
e 9 28
e 9 32
e 9 39
e 9 40
e 9 43
e 9 55
e 9 57
e 9 60
e 9 65
e 9 72
e 9 77
e 9 80
e 9 92
e 9 96
e 9 99
e 9 107
e 9 109
e 9 112
e 9 120
e 9 121
e 9 128
e 9 130
e 9 134
e 9 137
e 9 142
e 9 151
e 9 156
e 9 160
e 9 163
e 9 166
e 9 172
e 9 173
e 9 179
e 9 183
e 9 192
e 9 193
e 9 195
e 10 16
e 10 21
e 10 29
e 10 34
e 10 39
e 10 40
e 10 43
e 10 51
e 10 52
e 10 56
e 10 62
e 10 72
e 10 75
e 10 86
e 10 90
e 10 94
e 10 97
e 10 101
e 10 108
e 10 109
e 10 112
e 10 119
e 10 130
e 10 132
e 10 138
e 10 144
e 10 147
e 10 148
e 10 156
e 10 160
e 10 166
e 10 174
e 10 175
e 10 176
e 10 179
e 10 184
e 10 191
e 10 192
e 10 195
e 11 12
e 11 14
e 11 23
e 11 32
e 11 33
e 11 34
e 11 36
e 11 37
e 11 41
e 11 48
e 11 59
e 11 61
e 11 68
e 11 76
e 11 77
e 11 79
e 11 80
e 11 83
e 11 87
e 11 91
e 11 97
e 11 109
e 11 110
e 11 116
e 11 120
e 11 121
e 11 123
e 11 133
e 11 142
e 11 144
e 11 145
e 11 146
e 11 168
e 11 179
e 11 181
e 11 182
e 11 183
e 11 184
e 11 185
e 12 14
e 12 19
e 12 21
e 12 27
e 12 36
e 12 37
e 12 39
e 12 41
e 12 48
e 12 51
e 12 59
e 12 60
e 12 62
e 12 65
e 12 69
e 12 71
e 12 79
e 12 84
e 12 89
e 12 90
e 12 91
e 12 106
e 12 123
e 12 127
e 12 133
e 12 134
e 12 138
e 12 143
e 12 144
e 12 145
e 12 146
e 12 169
e 12 178
e 12 179
e 12 182
e 12 183
e 12 186
e 12 189
e 12 193
e 13 14
e 13 16
e 13 17
e 13 24
e 13 25
e 13 30
e 13 32
e 13 35
e 13 38
e 13 46
e 13 49
e 13 54
e 13 63
e 13 70
e 13 71
e 13 72
e 13 73
e 13 74
e 13 76
e 13 86
e 13 87
e 13 88
e 13 100
e 13 102
e 13 111
e 13 113
e 13 121
e 13 122
e 13 129
e 13 131
e 13 132
e 13 146
e 13 150
e 13 151
e 13 159
e 13 162
e 13 165
e 13 175
e 13 186
e 13 193
e 14 26
e 14 30
e 14 32
e 14 35
e 14 41
e 14 47
e 14 49
e 14 55
e 14 56
e 14 59
e 14 63
e 14 72
e 14 75
e 14 76
e 14 79
e 14 80
e 14 81
e 14 89
e 14 91
e 14 92
e 14 111
e 14 123
e 14 124
e 14 133
e 14 144
e 14 145
e 14 146
e 14 148
e 14 151
e 14 159
e 14 175
e 14 179
e 14 182
e 14 186
e 14 194
e 14 195
e 15 16
e 15 21
e 15 26
e 15 27
e 15 28
e 15 31
e 15 33
e 15 35
e 15 40
e 15 44
e 15 45
e 15 49
e 15 52
e 15 56
e 15 64
e 15 65
e 15 67
e 15 74
e 15 85
e 15 91
e 15 93
e 15 107
e 15 125
e 15 131
e 15 132
e 15 150
e 15 153
e 15 160
e 15 161
e 15 165
e 15 167
e 15 168
e 15 170
e 15 171
e 15 178
e 15 180
e 15 187
e 15 188
e 16 24
e 16 26
e 16 27
e 16 28
e 16 38
e 16 43
e 16 49
e 16 52
e 16 54
e 16 62
e 16 67
e 16 70
e 16 71
e 16 86
e 16 88
e 16 94
e 16 100
e 16 102
e 16 103
e 16 121
e 16 125
e 16 129
e 16 132
e 16 138
e 16 146
e 16 148
e 16 150
e 16 160
e 16 161
e 16 165
e 16 167
e 16 168
e 16 170
e 16 174
e 16 184
e 16 191
e 17 20
e 17 24
e 17 29
e 17 33
e 17 35
e 17 38
e 17 42
e 17 46
e 17 57
e 17 58
e 17 59
e 17 69
e 17 84
e 17 97
e 17 103
e 17 104
e 17 105
e 17 107
e 17 116
e 17 118
e 17 124
e 17 126
e 17 128
e 17 136
e 17 139
e 17 140
e 17 142
e 17 145
e 17 149
e 17 150
e 17 154
e 17 162
e 17 170
e 17 171
e 17 174
e 17 180
e 17 189
e 17 192
e 18 26
e 18 38
e 18 44
e 18 60
e 18 61
e 18 68
e 18 73
e 18 74
e 18 75
e 18 76
e 18 78
e 18 82
e 18 89
e 18 90
e 18 94
e 18 95
e 18 96
e 18 104
e 18 105
e 18 112
e 18 116
e 18 118
e 18 119
e 18 120
e 18 123
e 18 128
e 18 129
e 18 142
e 18 150
e 18 151
e 18 156
e 18 157
e 18 167
e 18 172
e 18 173
e 18 182
e 18 184
e 18 186
e 18 187
e 18 188
e 18 189
e 18 190
e 19 21
e 19 27
e 19 30
e 19 31
e 19 37
e 19 40
e 19 45
e 19 51
e 19 53
e 19 55
e 19 60
e 19 62
e 19 66
e 19 70
e 19 71
e 19 77
e 19 83
e 19 84
e 19 90
e 19 94
e 19 103
e 19 105
e 19 110
e 19 115
e 19 117
e 19 120
e 19 127
e 19 136
e 19 137
e 19 138
e 19 140
e 19 144
e 19 146
e 19 152
e 19 155
e 19 158
e 19 159
e 19 166
e 19 178
e 19 180
e 19 183
e 19 185
e 19 186
e 19 187
e 19 189
e 19 190
e 19 193
e 20 24
e 20 25
e 20 27
e 20 30
e 20 33
e 20 35
e 20 39
e 20 43
e 20 45
e 20 59
e 20 67
e 20 86
e 20 87
e 20 92
e 20 101
e 20 106
e 20 109
e 20 114
e 20 118
e 20 122
e 20 124
e 20 127
e 20 128
e 20 137
e 20 140
e 20 141
e 20 145
e 20 152
e 20 154
e 20 155
e 20 160
e 20 164
e 20 172
e 20 174
e 20 180
e 20 184
e 20 187
e 20 188
e 20 189
e 20 192
e 21 29
e 21 31
e 21 34
e 21 35
e 21 44
e 21 45
e 21 48
e 21 51
e 21 52
e 21 53
e 21 64
e 21 69
e 21 71
e 21 74
e 21 75
e 21 77
e 21 85
e 21 86
e 21 90
e 21 91
e 21 93
e 21 94
e 21 97
e 21 107
e 21 108
e 21 109
e 21 115
e 21 117
e 21 119
e 21 134
e 21 140
e 21 143
e 21 146
e 21 147
e 21 152
e 21 159
e 21 166
e 21 175
e 21 187
e 22 25
e 22 34
e 22 42
e 22 47
e 22 61
e 22 62
e 22 63
e 22 64
e 22 65
e 22 66
e 22 70
e 22 73
e 22 79
e 22 80
e 22 84
e 22 85
e 22 98
e 22 99
e 22 102
e 22 118
e 22 120
e 22 125
e 22 130
e 22 133
e 22 140
e 22 141
e 22 151
e 22 152
e 22 156
e 22 168
e 22 171
e 22 172
e 22 173
e 22 175
e 22 176
e 22 185
e 22 188
e 22 191
e 22 192
e 22 194
e 23 28
e 23 33
e 23 36
e 23 44
e 23 46
e 23 48
e 23 52
e 23 55
e 23 61
e 23 63
e 23 67
e 23 73
e 23 76
e 23 77
e 23 78
e 23 83
e 23 87
e 23 97
e 23 99
e 23 103
e 23 111
e 23 121
e 23 126
e 23 128
e 23 139
e 23 141
e 23 158
e 23 164
e 23 165
e 23 166
e 23 168
e 23 172
e 23 173
e 23 178
e 23 184
e 23 185
e 23 189
e 23 193
e 23 194
e 24 28
e 24 33
e 24 35
e 24 38
e 24 42
e 24 44
e 24 46
e 24 50
e 24 54
e 24 60
e 24 70
e 24 71
e 24 74
e 24 79
e 24 86
e 24 95
e 24 98
e 24 100
e 24 102
e 24 109
e 24 111
e 24 116
e 24 118
e 24 121
e 24 124
e 24 128
e 24 129
e 24 140
e 24 146
e 24 154
e 24 162
e 24 165
e 24 174
e 24 177
e 24 180
e 24 185
e 24 189
e 24 192
e 24 195
e 25 45
e 25 59
e 25 65
e 25 66
e 25 73
e 25 74
e 25 79
e 25 86
e 25 87
e 25 88
e 25 99
e 25 113
e 25 114
e 25 120
e 25 122
e 25 124
e 25 125
e 25 127
e 25 131
e 25 132
e 25 137
e 25 140
e 25 159
e 25 160
e 25 161
e 25 162
e 25 164
e 25 166
e 25 175
e 25 176
e 25 184
e 25 188
e 25 191
e 25 193
e 26 27
e 26 28
e 26 47
e 26 49
e 26 55
e 26 56
e 26 60
e 26 67
e 26 75
e 26 76
e 26 80
e 26 81
e 26 89
e 26 92
e 26 104
e 26 105
e 26 118
e 26 119
e 26 124
e 26 125
e 26 129
e 26 148
e 26 150
e 26 159
e 26 160
e 26 161
e 26 167
e 26 168
e 26 170
e 26 172
e 26 182
e 26 194
e 27 28
e 27 37
e 27 39
e 27 49
e 27 51
e 27 52
e 27 60
e 27 62
e 27 67
e 27 69
e 27 70
e 27 84
e 27 87
e 27 92
e 27 125
e 27 127
e 27 131
e 27 150
e 27 152
e 27 154
e 27 157
e 27 160
e 27 161
e 27 167
e 27 168
e 27 170
e 27 178
e 27 183
e 27 186
e 27 189
e 27 193
e 28 34
e 28 41
e 28 42
e 28 49
e 28 50
e 28 55
e 28 63
e 28 67
e 28 74
e 28 78
e 28 82
e 28 99
e 28 105
e 28 111
e 28 116
e 28 117
e 28 125
e 28 128
e 28 131
e 28 137
e 28 143
e 28 150
e 28 160
e 28 161
e 28 167
e 28 168
e 28 169
e 28 170
e 28 172
e 28 173
e 28 174
e 28 193
e 29 31
e 29 33
e 29 34
e 29 51
e 29 57
e 29 58
e 29 59
e 29 62
e 29 69
e 29 71
e 29 75
e 29 82
e 29 86
e 29 90
e 29 97
e 29 103
e 29 104
e 29 108
e 29 109
e 29 114
e 29 116
e 29 119
e 29 122
e 29 126
e 29 135
e 29 136
e 29 146
e 29 147
e 29 161
e 29 162
e 29 163
e 29 170
e 29 171
e 29 175
e 29 196
e 30 32
e 30 35
e 30 37
e 30 40
e 30 41
e 30 43
e 30 45
e 30 47
e 30 49
e 30 55
e 30 63
e 30 67
e 30 71
e 30 72
e 30 76
e 30 93
e 30 95
e 30 96
e 30 97
e 30 99
e 30 101
e 30 105
e 30 106
e 30 109
e 30 110
e 30 111
e 30 120
e 30 122
e 30 136
e 30 138
e 30 141
e 30 145
e 30 151
e 30 155
e 30 156
e 30 158
e 30 172
e 30 175
e 30 185
e 30 186
e 30 187
e 31 33
e 31 35
e 31 39
e 31 44
e 31 45
e 31 50
e 31 52
e 31 54
e 31 62
e 31 64
e 31 66
e 31 69
e 31 70
e 31 71
e 31 74
e 31 76
e 31 80
e 31 82
e 31 83
e 31 85
e 31 90
e 31 91
e 31 93
e 31 94
e 31 99
e 31 103
e 31 107
e 31 122
e 31 127
e 31 135
e 31 137
e 31 139
e 31 144
e 31 153
e 31 155
e 31 161
e 31 163
e 31 180
e 31 181
e 31 190
e 32 35
e 32 49
e 32 56
e 32 63
e 32 72
e 32 76
e 32 80
e 32 83
e 32 84
e 32 95
e 32 96
e 32 100
e 32 106
e 32 108
e 32 109
e 32 111
e 32 112
e 32 113
e 32 117
e 32 118
e 32 120
e 32 126
e 32 135
e 32 138
e 32 142
e 32 144
e 32 149
e 32 151
e 32 152
e 32 153
e 32 161
e 32 164
e 32 173
e 32 175
e 32 177
e 32 183
e 32 186
e 32 191
e 33 35
e 33 36
e 33 40
e 33 48
e 33 56
e 33 61
e 33 62
e 33 65
e 33 71
e 33 76
e 33 77
e 33 82
e 33 83
e 33 87
e 33 97
e 33 118
e 33 122
e 33 124
e 33 128
e 33 131
e 33 135
e 33 140
e 33 153
e 33 154
e 33 161
e 33 163
e 33 168
e 33 174
e 33 178
e 33 180
e 33 184
e 33 185
e 33 187
e 33 188
e 33 189
e 33 192
e 34 37
e 34 41
e 34 50
e 34 51
e 34 63
e 34 68
e 34 75
e 34 78
e 34 82
e 34 84
e 34 85
e 34 86
e 34 90
e 34 97
e 34 102
e 34 105
e 34 108
e 34 109
e 34 110
e 34 116
e 34 117
e 34 119
e 34 121
e 34 131
e 34 133
e 34 137
e 34 143
e 34 147
e 34 151
e 34 169
e 34 173
e 34 174
e 34 175
e 34 181
e 34 185
e 34 192
e 34 194
e 35 38
e 35 44
e 35 45
e 35 49
e 35 52
e 35 57
e 35 63
e 35 64
e 35 72
e 35 74
e 35 76
e 35 78
e 35 85
e 35 91
e 35 93
e 35 98
e 35 107
e 35 111
e 35 118
e 35 124
e 35 128
e 35 140
e 35 151
e 35 154
e 35 168
e 35 174
e 35 175
e 35 180
e 35 181
e 35 186
e 35 189
e 35 192
e 35 193
e 36 37
e 36 39
e 36 45
e 36 48
e 36 51
e 36 53
e 36 54
e 36 58
e 36 61
e 36 65
e 36 72
e 36 76
e 36 77
e 36 83
e 36 85
e 36 87
e 36 89
e 36 90
e 36 97
e 36 101
e 36 106
e 36 114
e 36 117
e 36 123
e 36 129
e 36 138
e 36 142
e 36 143
e 36 148
e 36 155
e 36 157
e 36 163
e 36 168
e 36 169
e 36 171
e 36 176
e 36 177
e 36 184
e 36 185
e 37 41
e 37 47
e 37 51
e 37 53
e 37 58
e 37 60
e 37 62
e 37 68
e 37 72
e 37 84
e 37 85
e 37 93
e 37 95
e 37 96
e 37 97
e 37 99
e 37 110
e 37 114
e 37 116
e 37 121
e 37 127
e 37 129
e 37 142
e 37 143
e 37 148
e 37 155
e 37 156
e 37 176
e 37 177
e 37 178
e 37 181
e 37 183
e 37 186
e 37 189
e 37 193
e 38 42
e 38 44
e 38 54
e 38 57
e 38 70
e 38 71
e 38 78
e 38 82
e 38 84
e 38 86
e 38 89
e 38 97
e 38 98
e 38 100
e 38 102
e 38 105
e 38 107
e 38 116
e 38 121
e 38 129
e 38 139
e 38 142
e 38 145
e 38 146
e 38 149
e 38 156
e 38 157
e 38 165
e 38 168
e 38 173
e 38 181
e 38 184
e 38 186
e 38 187
e 38 190
e 38 193
e 39 40
e 39 50
e 39 54
e 39 65
e 39 69
e 39 72
e 39 76
e 39 80
e 39 87
e 39 89
e 39 90
e 39 92
e 39 94
e 39 99
e 39 106
e 39 112
e 39 127
e 39 130
e 39 138
e 39 139
e 39 152
e 39 153
e 39 156
e 39 160
e 39 166
e 39 169
e 39 179
e 39 181
e 39 192
e 39 195
e 40 45
e 40 48
e 40 55
e 40 56
e 40 65
e 40 71
e 40 72
e 40 92
e 40 105
e 40 108
e 40 110
e 40 112
e 40 120
e 40 123
e 40 130
e 40 131
e 40 136
e 40 138
e 40 153
e 40 155
e 40 156
e 40 158
e 40 160
e 40 166
e 40 178
e 40 179
e 40 185
e 40 187
e 40 188
e 40 191
e 40 192
e 40 195
e 41 47
e 41 50
e 41 57
e 41 59
e 41 63
e 41 78
e 41 79
e 41 82
e 41 85
e 41 91
e 41 93
e 41 95
e 41 96
e 41 97
e 41 99
e 41 100
e 41 105
e 41 117
e 41 119
e 41 123
e 41 131
e 41 133
e 41 137
e 41 143
e 41 144
e 41 145
e 41 146
e 41 156
e 41 158
e 41 169
e 41 174
e 41 179
e 41 182
e 41 183
e 42 46
e 42 47
e 42 49
e 42 61
e 42 62
e 42 63
e 42 64
e 42 70
e 42 74
e 42 84
e 42 88
e 42 97
e 42 98
e 42 105
e 42 107
e 42 111
e 42 114
e 42 115
e 42 116
e 42 130
e 42 134
e 42 135
e 42 139
e 42 142
e 42 145
e 42 147
e 42 149
e 42 152
e 42 157
e 42 158
e 42 171
e 42 172
e 42 180
e 42 181
e 42 182
e 42 188
e 43 51
e 43 52
e 43 57
e 43 60
e 43 62
e 43 65
e 43 67
e 43 77
e 43 83
e 43 91
e 43 92
e 43 94
e 43 96
e 43 101
e 43 106
e 43 107
e 43 109
e 43 121
e 43 122
e 43 124
e 43 130
e 43 132
e 43 134
e 43 137
e 43 138
e 43 141
e 43 143
e 43 145
e 43 148
e 43 151
e 43 153
e 43 155
e 43 163
e 43 172
e 43 174
e 43 184
e 43 187
e 43 191
e 43 196
e 44 45
e 44 46
e 44 50
e 44 52
e 44 60
e 44 63
e 44 64
e 44 67
e 44 73
e 44 74
e 44 79
e 44 82
e 44 85
e 44 89
e 44 91
e 44 93
e 44 95
e 44 98
e 44 107
e 44 109
e 44 116
e 44 121
e 44 126
e 44 139
e 44 156
e 44 157
e 44 158
e 44 162
e 44 173
e 44 177
e 44 184
e 44 185
e 44 186
e 44 187
e 44 189
e 44 190
e 44 195
e 45 51
e 45 52
e 45 54
e 45 55
e 45 59
e 45 64
e 45 71
e 45 74
e 45 85
e 45 86
e 45 91
e 45 93
e 45 101
e 45 105
e 45 107
e 45 110
e 45 114
e 45 117
e 45 120
e 45 123
e 45 127
e 45 136
e 45 137
e 45 138
e 45 157
e 45 158
e 45 160
e 45 163
e 45 164
e 45 171
e 45 184
e 45 185
e 45 188
e 46 49
e 46 50
e 46 52
e 46 60
e 46 78
e 46 79
e 46 88
e 46 95
e 46 98
e 46 103
e 46 109
e 46 111
e 46 114
e 46 115
e 46 134
e 46 135
e 46 141
e 46 147
e 46 150
e 46 157
e 46 158
e 46 162
e 46 164
e 46 165
e 46 166
e 46 177
e 46 178
e 46 180
e 46 181
e 46 182
e 46 185
e 46 194
e 46 195
e 47 55
e 47 56
e 47 61
e 47 62
e 47 63
e 47 64
e 47 67
e 47 70
e 47 75
e 47 80
e 47 81
e 47 89
e 47 92
e 47 93
e 47 95
e 47 96
e 47 97
e 47 98
e 47 99
e 47 113
e 47 124
e 47 130
e 47 148
e 47 152
e 47 156
e 47 159
e 47 171
e 47 172
e 47 188
e 47 192
e 47 194
e 48 61
e 48 66
e 48 68
e 48 69
e 48 71
e 48 76
e 48 77
e 48 81
e 48 83
e 48 87
e 48 92
e 48 93
e 48 97
e 48 101
e 48 102
e 48 104
e 48 108
e 48 115
e 48 123
e 48 134
e 48 143
e 48 149
e 48 155
e 48 168
e 48 169
e 48 183
e 48 184
e 48 185
e 48 191
e 48 195
e 48 196
e 49 63
e 49 67
e 49 72
e 49 76
e 49 88
e 49 111
e 49 114
e 49 115
e 49 125
e 49 134
e 49 135
e 49 147
e 49 150
e 49 151
e 49 157
e 49 158
e 49 160
e 49 161
e 49 162
e 49 167
e 49 168
e 49 170
e 49 175
e 49 180
e 49 181
e 49 182
e 49 186
e 50 54
e 50 58
e 50 60
e 50 61
e 50 63
e 50 69
e 50 76
e 50 78
e 50 79
e 50 80
e 50 82
e 50 94
e 50 95
e 50 98
e 50 99
e 50 100
e 50 105
e 50 107
e 50 109
e 50 110
e 50 113
e 50 117
e 50 125
e 50 127
e 50 128
e 50 131
e 50 137
e 50 139
e 50 141
e 50 143
e 50 147
e 50 153
e 50 162
e 50 169
e 50 174
e 50 177
e 50 181
e 50 185
e 50 186
e 50 195
e 51 54
e 51 60
e 51 62
e 51 75
e 51 83
e 51 84
e 51 86
e 51 90
e 51 91
e 51 97
e 51 101
e 51 108
e 51 109
e 51 117
e 51 119
e 51 123
e 51 124
e 51 127
e 51 130
e 51 143
e 51 147
e 51 153
e 51 157
e 51 163
e 51 171
e 51 175
e 51 178
e 51 183
e 51 186
e 51 189
e 51 193
e 51 196
e 52 62
e 52 64
e 52 69
e 52 70
e 52 74
e 52 78
e 52 85
e 52 91
e 52 93
e 52 94
e 52 103
e 52 107
e 52 111
e 52 131
e 52 132
e 52 138
e 52 141
e 52 148
e 52 154
e 52 157
e 52 164
e 52 165
e 52 166
e 52 174
e 52 178
e 52 184
e 52 191
e 52 194
e 53 58
e 53 72
e 53 77
e 53 85
e 53 86
e 53 91
e 53 94
e 53 98
e 53 110
e 53 111
e 53 114
e 53 115
e 53 117
e 53 119
e 53 129
e 53 132
e 53 133
e 53 135
e 53 136
e 53 139
e 53 140
e 53 142
e 53 143
e 53 146
e 53 148
e 53 150
e 53 152
e 53 154
e 53 155
e 53 159
e 53 163
e 53 166
e 53 169
e 53 176
e 53 177
e 53 187
e 53 190
e 53 196
e 54 64
e 54 69
e 54 70
e 54 71
e 54 76
e 54 80
e 54 86
e 54 87
e 54 94
e 54 99
e 54 100
e 54 101
e 54 102
e 54 117
e 54 121
e 54 123
e 54 127
e 54 129
e 54 134
e 54 136
e 54 139
e 54 146
e 54 153
e 54 157
e 54 163
e 54 165
e 54 167
e 54 171
e 54 174
e 54 178
e 54 181
e 54 190
e 55 56
e 55 68
e 55 71
e 55 75
e 55 80
e 55 81
e 55 89
e 55 92
e 55 99
e 55 105
e 55 110
e 55 112
e 55 120
e 55 124
e 55 128
e 55 136
e 55 138
e 55 145
e 55 148
e 55 158
e 55 159
e 55 172
e 55 173
e 55 175
e 55 177
e 55 185
e 55 193
e 55 194
e 56 65
e 56 75
e 56 80
e 56 81
e 56 83
e 56 84
e 56 89
e 56 92
e 56 95
e 56 100
e 56 101
e 56 106
e 56 112
e 56 117
e 56 124
e 56 126
e 56 131
e 56 135
e 56 144
e 56 148
e 56 153
e 56 159
e 56 176
e 56 178
e 56 187
e 56 188
e 56 191
e 56 194
e 57 58
e 57 59
e 57 60
e 57 65
e 57 69
e 57 77
e 57 78
e 57 85
e 57 92
e 57 96
e 57 98
e 57 100
e 57 103
e 57 104
e 57 107
e 57 116
e 57 119
e 57 121
e 57 126
e 57 134
e 57 136
e 57 137
e 57 151
e 57 158
e 57 162
e 57 163
e 57 168
e 57 170
e 57 171
e 57 181
e 57 183
e 57 193
e 58 59
e 58 61
e 58 69
e 58 72
e 58 85
e 58 100
e 58 102
e 58 103
e 58 104
e 58 107
e 58 110
e 58 113
e 58 114
e 58 116
e 58 125
e 58 126
e 58 128
e 58 129
e 58 136
e 58 141
e 58 142
e 58 143
e 58 147
e 58 148
e 58 155
e 58 162
e 58 170
e 58 171
e 58 176
e 58 177
e 58 182
e 58 186
e 59 69
e 59 79
e 59 86
e 59 91
e 59 103
e 59 104
e 59 114
e 59 115
e 59 116
e 59 123
e 59 126
e 59 127
e 59 133
e 59 136
e 59 137
e 59 144
e 59 145
e 59 146
e 59 160
e 59 162
e 59 164
e 59 170
e 59 171
e 59 179
e 59 182
e 59 184
e 59 188
e 60 62
e 60 65
e 60 76
e 60 77
e 60 79
e 60 84
e 60 92
e 60 95
e 60 96
e 60 98
e 60 104
e 60 105
e 60 107
e 60 109
e 60 118
e 60 119
e 60 121
e 60 127
e 60 129
e 60 134
e 60 137
e 60 151
e 60 162
e 60 163
e 60 172
e 60 177
e 60 178
e 60 182
e 60 183
e 60 185
e 60 186
e 60 189
e 60 193
e 60 195
e 61 62
e 61 63
e 61 64
e 61 70
e 61 74
e 61 75
e 61 76
e 61 77
e 61 78
e 61 83
e 61 87
e 61 96
e 61 97
e 61 98
e 61 100
e 61 107
e 61 110
e 61 112
e 61 113
e 61 120
e 61 125
e 61 128
e 61 130
e 61 141
e 61 147
e 61 150
e 61 152
e 61 168
e 61 171
e 61 172
e 61 184
e 61 185
e 61 186
e 61 188
e 61 189
e 62 63
e 62 64
e 62 70
e 62 71
e 62 82
e 62 84
e 62 94
e 62 98
e 62 122
e 62 127
e 62 130
e 62 132
e 62 135
e 62 138
e 62 148
e 62 152
e 62 161
e 62 163
e 62 171
e 62 172
e 62 174
e 62 178
e 62 183
e 62 184
e 62 186
e 62 188
e 62 189
e 62 191
e 62 193
e 63 64
e 63 67
e 63 70
e 63 72
e 63 73
e 63 76
e 63 78
e 63 82
e 63 98
e 63 105
e 63 111
e 63 117
e 63 121
e 63 126
e 63 130
e 63 131
e 63 137
e 63 139
e 63 143
e 63 151
e 63 152
e 63 158
e 63 169
e 63 171
e 63 172
e 63 174
e 63 175
e 63 186
e 63 188
e 63 189
e 64 70
e 64 74
e 64 77
e 64 81
e 64 82
e 64 85
e 64 87
e 64 88
e 64 91
e 64 93
e 64 98
e 64 106
e 64 107
e 64 108
e 64 127
e 64 130
e 64 134
e 64 136
e 64 152
e 64 154
e 64 165
e 64 167
e 64 170
e 64 171
e 64 172
e 64 174
e 64 176
e 64 178
e 64 179
e 64 188
e 64 190
e 65 66
e 65 77
e 65 79
e 65 89
e 65 90
e 65 92
e 65 96
e 65 99
e 65 106
e 65 107
e 65 120
e 65 121
e 65 125
e 65 131
e 65 134
e 65 137
e 65 138
e 65 140
e 65 151
e 65 153
e 65 163
e 65 169
e 65 175
e 65 176
e 65 178
e 65 187
e 65 188
e 65 191
e 66 68
e 66 70
e 66 79
e 66 81
e 66 83
e 66 90
e 66 93
e 66 99
e 66 101
e 66 102
e 66 103
e 66 104
e 66 115
e 66 120
e 66 125
e 66 137
e 66 140
e 66 144
e 66 148
e 66 149
e 66 155
e 66 169
e 66 175
e 66 176
e 66 179
e 66 180
e 66 183
e 66 190
e 66 191
e 66 195
e 66 196
e 67 73
e 67 101
e 67 106
e 67 109
e 67 113
e 67 121
e 67 122
e 67 125
e 67 126
e 67 139
e 67 141
e 67 145
e 67 150
e 67 155
e 67 158
e 67 160
e 67 161
e 67 167
e 67 168
e 67 170
e 67 172
e 67 187
e 67 189
e 67 192
e 68 73
e 68 81
e 68 90
e 68 93
e 68 94
e 68 95
e 68 101
e 68 102
e 68 104
e 68 110
e 68 112
e 68 115
e 68 116
e 68 121
e 68 123
e 68 128
e 68 142
e 68 145
e 68 149
e 68 151
e 68 167
e 68 169
e 68 175
e 68 177
e 68 181
e 68 183
e 68 188
e 68 195
e 68 196
e 69 70
e 69 71
e 69 76
e 69 80
e 69 94
e 69 99
e 69 103
e 69 104
e 69 116
e 69 126
e 69 127
e 69 131
e 69 134
e 69 136
e 69 139
e 69 143
e 69 153
e 69 154
e 69 157
e 69 162
e 69 170
e 69 171
e 69 181
e 70 71
e 70 83
e 70 86
e 70 90
e 70 98
e 70 100
e 70 102
e 70 103
e 70 121
e 70 129
e 70 130
e 70 131
e 70 137
e 70 144
e 70 146
e 70 152
e 70 154
e 70 155
e 70 157
e 70 165
e 70 171
e 70 172
e 70 180
e 70 188
e 70 190
e 71 82
e 71 86
e 71 100
e 71 102
e 71 105
e 71 110
e 71 120
e 71 121
e 71 122
e 71 129
e 71 134
e 71 135
e 71 136
e 71 138
e 71 143
e 71 146
e 71 158
e 71 161
e 71 163
e 71 165
e 71 185
e 72 75
e 72 76
e 72 79
e 72 85
e 72 111
e 72 112
e 72 114
e 72 129
e 72 130
e 72 142
e 72 143
e 72 148
e 72 149
e 72 151
e 72 155
e 72 156
e 72 160
e 72 166
e 72 175
e 72 176
e 72 177
e 72 179
e 72 186
e 72 192
e 72 195
e 73 74
e 73 80
e 73 87
e 73 88
e 73 90
e 73 94
e 73 95
e 73 113
e 73 118
e 73 121
e 73 122
e 73 123
e 73 126
e 73 128
e 73 131
e 73 132
e 73 139
e 73 141
e 73 142
e 73 151
e 73 156
e 73 158
e 73 159
e 73 162
e 73 167
e 73 168
e 73 188
e 73 189
e 73 193
e 74 75
e 74 78
e 74 85
e 74 87
e 74 88
e 74 91
e 74 93
e 74 96
e 74 107
e 74 111
e 74 112
e 74 113
e 74 116
e 74 120
e 74 122
e 74 131
e 74 132
e 74 150
e 74 159
e 74 162
e 74 189
e 74 193
e 75 78
e 75 79
e 75 80
e 75 81
e 75 86
e 75 89
e 75 90
e 75 92
e 75 96
e 75 97
e 75 108
e 75 109
e 75 112
e 75 119
e 75 120
e 75 124
e 75 147
e 75 148
e 75 149
e 75 150
e 75 159
e 75 175
e 75 189
e 75 194
e 76 77
e 76 80
e 76 83
e 76 87
e 76 94
e 76 97
e 76 99
e 76 104
e 76 105
e 76 111
e 76 118
e 76 119
e 76 127
e 76 129
e 76 139
e 76 151
e 76 153
e 76 168
e 76 172
e 76 175
e 76 181
e 76 182
e 76 184
e 76 185
e 76 186
e 77 81
e 77 82
e 77 83
e 77 87
e 77 88
e 77 92
e 77 94
e 77 96
e 77 97
e 77 106
e 77 107
e 77 108
e 77 115
e 77 117
e 77 121
e 77 127
e 77 134
e 77 137
e 77 140
e 77 146
e 77 151
e 77 152
e 77 154
e 77 159
e 77 163
e 77 165
e 77 166
e 77 168
e 77 170
e 77 176
e 77 179
e 77 184
e 77 185
e 77 187
e 78 82
e 78 96
e 78 98
e 78 103
e 78 105
e 78 111
e 78 112
e 78 117
e 78 120
e 78 131
e 78 137
e 78 141
e 78 143
e 78 150
e 78 164
e 78 165
e 78 166
e 78 168
e 78 169
e 78 174
e 78 178
e 78 181
e 78 189
e 78 193
e 78 194
e 79 91
e 79 95
e 79 98
e 79 99
e 79 109
e 79 120
e 79 123
e 79 125
e 79 133
e 79 140
e 79 144
e 79 145
e 79 146
e 79 149
e 79 162
e 79 175
e 79 176
e 79 177
e 79 179
e 79 182
e 79 185
e 79 191
e 79 195
e 80 81
e 80 89
e 80 92
e 80 94
e 80 99
e 80 109
e 80 118
e 80 120
e 80 124
e 80 127
e 80 139
e 80 141
e 80 142
e 80 148
e 80 153
e 80 156
e 80 159
e 80 168
e 80 181
e 80 183
e 80 194
e 81 82
e 81 88
e 81 89
e 81 92
e 81 93
e 81 101
e 81 102
e 81 104
e 81 106
e 81 108
e 81 115
e 81 124
e 81 127
e 81 148
e 81 149
e 81 154
e 81 159
e 81 165
e 81 169
e 81 170
e 81 176
e 81 179
e 81 183
e 81 194
e 81 195
e 81 196
e 82 88
e 82 89
e 82 105
e 82 106
e 82 108
e 82 116
e 82 117
e 82 122
e 82 127
e 82 131
e 82 135
e 82 137
e 82 143
e 82 154
e 82 156
e 82 157
e 82 161
e 82 163
e 82 165
e 82 169
e 82 170
e 82 173
e 82 174
e 82 176
e 82 179
e 82 184
e 82 186
e 82 187
e 82 190
e 83 84
e 83 87
e 83 90
e 83 91
e 83 95
e 83 97
e 83 100
e 83 103
e 83 106
e 83 112
e 83 117
e 83 124
e 83 126
e 83 130
e 83 135
e 83 137
e 83 143
e 83 144
e 83 153
e 83 155
e 83 168
e 83 180
e 83 184
e 83 185
e 83 190
e 83 191
e 83 196
e 84 85
e 84 95
e 84 97
e 84 100
e 84 102
e 84 105
e 84 106
e 84 107
e 84 112
e 84 117
e 84 126
e 84 127
e 84 133
e 84 135
e 84 139
e 84 142
e 84 145
e 84 149
e 84 151
e 84 173
e 84 178
e 84 183
e 84 185
e 84 186
e 84 189
e 84 191
e 84 192
e 84 193
e 84 194
e 85 91
e 85 93
e 85 100
e 85 102
e 85 107
e 85 114
e 85 119
e 85 129
e 85 133
e 85 142
e 85 143
e 85 148
e 85 151
e 85 155
e 85 158
e 85 173
e 85 176
e 85 177
e 85 183
e 85 185
e 85 192
e 85 194
e 86 90
e 86 91
e 86 97
e 86 100
e 86 102
e 86 108
e 86 109
e 86 114
e 86 119
e 86 121
e 86 127
e 86 129
e 86 135
e 86 136
e 86 137
e 86 146
e 86 147
e 86 160
e 86 164
e 86 165
e 86 169
e 86 175
e 86 184
e 86 188
e 87 88
e 87 92
e 87 97
e 87 113
e 87 122
e 87 131
e 87 132
e 87 134
e 87 136
e 87 152
e 87 159
e 87 162
e 87 167
e 87 168
e 87 174
e 87 178
e 87 184
e 87 185
e 87 190
e 87 193
e 88 103
e 88 106
e 88 108
e 88 113
e 88 114
e 88 115
e 88 122
e 88 127
e 88 131
e 88 132
e 88 134
e 88 135
e 88 147
e 88 154
e 88 157
e 88 158
e 88 159
e 88 162
e 88 165
e 88 170
e 88 176
e 88 179
e 88 180
e 88 181
e 88 182
e 88 193
e 89 90
e 89 92
e 89 106
e 89 116
e 89 122
e 89 124
e 89 130
e 89 138
e 89 140
e 89 148
e 89 156
e 89 157
e 89 159
e 89 164
e 89 167
e 89 169
e 89 173
e 89 184
e 89 186
e 89 187
e 89 190
e 89 194
e 90 94
e 90 95
e 90 97
e 90 103
e 90 106
e 90 108
e 90 109
e 90 119
e 90 123
e 90 128
e 90 137
e 90 138
e 90 142
e 90 144
e 90 147
e 90 151
e 90 155
e 90 167
e 90 169
e 90 175
e 90 180
e 90 188
e 90 190
e 91 93
e 91 107
e 91 123
e 91 124
e 91 130
e 91 133
e 91 135
e 91 136
e 91 143
e 91 144
e 91 145
e 91 146
e 91 153
e 91 169
e 91 179
e 91 182
e 91 196
e 92 96
e 92 107
e 92 108
e 92 121
e 92 123
e 92 124
e 92 134
e 92 137
e 92 148
e 92 151
e 92 152
e 92 155
e 92 159
e 92 163
e 92 191
e 92 194
e 93 95
e 93 96
e 93 97
e 93 99
e 93 101
e 93 102
e 93 104
e 93 107
e 93 115
e 93 126
e 93 129
e 93 133
e 93 147
e 93 149
e 93 156
e 93 169
e 93 183
e 93 195
e 93 196
e 94 95
e 94 99
e 94 115
e 94 117
e 94 123
e 94 127
e 94 128
e 94 132
e 94 138
e 94 139
e 94 140
e 94 142
e 94 146
e 94 148
e 94 151
e 94 152
e 94 153
e 94 159
e 94 166
e 94 167
e 94 174
e 94 181
e 94 184
e 94 187
e 94 188
e 94 191
e 95 96
e 95 97
e 95 98
e 95 99
e 95 100
e 95 106
e 95 109
e 95 112
e 95 117
e 95 123
e 95 126
e 95 128
e 95 135
e 95 142
e 95 151
e 95 156
e 95 162
e 95 167
e 95 177
e 95 185
e 95 188
e 95 191
e 95 195
e 96 97
e 96 99
e 96 107
e 96 108
e 96 112
e 96 113
e 96 118
e 96 120
e 96 121
e 96 134
e 96 137
e 96 138
e 96 144
e 96 149
e 96 150
e 96 151
e 96 152
e 96 153
e 96 156
e 96 161
e 96 163
e 96 164
e 96 173
e 96 177
e 96 189
e 97 99
e 97 105
e 97 107
e 97 108
e 97 109
e 97 119
e 97 139
e 97 142
e 97 145
e 97 147
e 97 149
e 97 156
e 97 168
e 97 175
e 97 184
e 97 185
e 98 109
e 98 110
e 98 111
e 98 119
e 98 130
e 98 132
e 98 133
e 98 139
e 98 150
e 98 152
e 98 154
e 98 162
e 98 163
e 98 168
e 98 171
e 98 172
e 98 177
e 98 181
e 98 185
e 98 188
e 98 190
e 98 193
e 98 195
e 98 196
e 99 120
e 99 125
e 99 127
e 99 128
e 99 139
e 99 140
e 99 153
e 99 156
e 99 172
e 99 173
e 99 175
e 99 176
e 99 181
e 99 191
e 99 193
e 100 102
e 100 106
e 100 107
e 100 110
e 100 112
e 100 113
e 100 117
e 100 119
e 100 121
e 100 125
e 100 126
e 100 128
e 100 129
e 100 135
e 100 141
e 100 146
e 100 147
e 100 158
e 100 165
e 100 183
e 100 186
e 100 191
e 101 102
e 101 104
e 101 106
e 101 109
e 101 115
e 101 117
e 101 122
e 101 123
e 101 141
e 101 144
e 101 145
e 101 149
e 101 155
e 101 157
e 101 163
e 101 169
e 101 171
e 101 172
e 101 176
e 101 183
e 101 187
e 101 195
e 101 196
e 102 104
e 102 115
e 102 121
e 102 129
e 102 133
e 102 146
e 102 149
e 102 151
e 102 165
e 102 169
e 102 173
e 102 182
e 102 183
e 102 185
e 102 192
e 102 194
e 102 195
e 102 196
e 103 104
e 103 111
e 103 116
e 103 126
e 103 136
e 103 137
e 103 141
e 103 144
e 103 155
e 103 162
e 103 164
e 103 165
e 103 166
e 103 170
e 103 171
e 103 178
e 103 180
e 103 190
e 103 194
e 104 105
e 104 115
e 104 116
e 104 118
e 104 119
e 104 126
e 104 129
e 104 136
e 104 149
e 104 162
e 104 169
e 104 170
e 104 171
e 104 172
e 104 182
e 104 183
e 104 195
e 104 196
e 105 107
e 105 110
e 105 117
e 105 118
e 105 119
e 105 120
e 105 129
e 105 131
e 105 136
e 105 137
e 105 138
e 105 139
e 105 142
e 105 143
e 105 145
e 105 149
e 105 158
e 105 169
e 105 172
e 105 174
e 105 182
e 105 185
e 106 108
e 106 109
e 106 112
e 106 117
e 106 122
e 106 126
e 106 127
e 106 135
e 106 138
e 106 141
e 106 145
e 106 154
e 106 155
e 106 165
e 106 169
e 106 170
e 106 172
e 106 176
e 106 179
e 106 187
e 106 191
e 107 110
e 107 113
e 107 121
e 107 125
e 107 128
e 107 134
e 107 137
e 107 139
e 107 141
e 107 142
e 107 145
e 107 147
e 107 149
e 107 151
e 107 163
e 107 186
e 108 109
e 108 113
e 108 118
e 108 119
e 108 123
e 108 127
e 108 138
e 108 144
e 108 147
e 108 149
e 108 152
e 108 153
e 108 154
e 108 155
e 108 161
e 108 164
e 108 165
e 108 170
e 108 173
e 108 175
e 108 176
e 108 177
e 108 179
e 108 191
e 109 119
e 109 120
e 109 122
e 109 141
e 109 142
e 109 145
e 109 147
e 109 155
e 109 162
e 109 172
e 109 175
e 109 177
e 109 183
e 109 185
e 109 187
e 109 195
e 110 111
e 110 113
e 110 116
e 110 119
e 110 120
e 110 121
e 110 125
e 110 128
e 110 132
e 110 133
e 110 136
e 110 138
e 110 139
e 110 141
e 110 147
e 110 150
e 110 154
e 110 158
e 110 163
e 110 181
e 110 185
e 110 186
e 110 190
e 110 196
e 111 116
e 111 119
e 111 132
e 111 133
e 111 139
e 111 141
e 111 150
e 111 151
e 111 154
e 111 163
e 111 164
e 111 165
e 111 166
e 111 175
e 111 178
e 111 186
e 111 190
e 111 194
e 111 196
e 112 117
e 112 120
e 112 126
e 112 130
e 112 135
e 112 145
e 112 150
e 112 156
e 112 160
e 112 166
e 112 175
e 112 177
e 112 179
e 112 189
e 112 191
e 112 192
e 112 195
e 113 118
e 113 122
e 113 125
e 113 128
e 113 131
e 113 132
e 113 138
e 113 141
e 113 144
e 113 147
e 113 149
e 113 152
e 113 153
e 113 159
e 113 161
e 113 162
e 113 164
e 113 173
e 113 177
e 113 186
e 113 192
e 113 193
e 114 115
e 114 127
e 114 129
e 114 134
e 114 135
e 114 137
e 114 142
e 114 143
e 114 146
e 114 147
e 114 148
e 114 155
e 114 157
e 114 158
e 114 160
e 114 164
e 114 176
e 114 177
e 114 180
e 114 181
e 114 182
e 114 184
e 114 188
e 114 196
e 115 117
e 115 134
e 115 135
e 115 140
e 115 146
e 115 147
e 115 149
e 115 152
e 115 157
e 115 158
e 115 159
e 115 166
e 115 169
e 115 180
e 115 181
e 115 182
e 115 183
e 115 187
e 115 195
e 115 196
e 116 121
e 116 126
e 116 136
e 116 156
e 116 157
e 116 162
e 116 170
e 116 171
e 116 173
e 116 181
e 116 184
e 116 186
e 116 187
e 116 190
e 117 123
e 117 126
e 117 131
e 117 135
e 117 137
e 117 140
e 117 143
e 117 146
e 117 152
e 117 157
e 117 159
e 117 163
e 117 166
e 117 169
e 117 171
e 117 174
e 117 187
e 117 191
e 118 119
e 118 124
e 118 128
e 118 129
e 118 138
e 118 140
e 118 141
e 118 144
e 118 149
e 118 152
e 118 153
e 118 154
e 118 156
e 118 161
e 118 164
e 118 168
e 118 172
e 118 173
e 118 174
e 118 177
e 118 180
e 118 182
e 118 189
e 118 192
e 119 129
e 119 132
e 119 133
e 119 139
e 119 147
e 119 150
e 119 154
e 119 158
e 119 163
e 119 172
e 119 175
e 119 182
e 119 183
e 119 190
e 119 196
e 120 125
e 120 136
e 120 138
e 120 140
e 120 142
e 120 150
e 120 158
e 120 175
e 120 176
e 120 183
e 120 185
e 120 189
e 120 191
e 121 126
e 121 129
e 121 134
e 121 137
e 121 139
e 121 146
e 121 151
e 121 158
e 121 163
e 121 165
e 121 181
e 121 189
e 122 130
e 122 131
e 122 132
e 122 135
e 122 140
e 122 141
e 122 145
e 122 155
e 122 159
e 122 161
e 122 162
e 122 163
e 122 164
e 122 167
e 122 172
e 122 187
e 122 193
e 123 128
e 123 133
e 123 142
e 123 144
e 123 145
e 123 146
e 123 151
e 123 155
e 123 157
e 123 163
e 123 167
e 123 171
e 123 179
e 123 182
e 123 188
e 123 191
e 124 128
e 124 130
e 124 140
e 124 143
e 124 148
e 124 153
e 124 154
e 124 159
e 124 161
e 124 166
e 124 174
e 124 180
e 124 189
e 124 192
e 124 194
e 124 196
e 125 128
e 125 140
e 125 141
e 125 147
e 125 150
e 125 160
e 125 161
e 125 167
e 125 168
e 125 170
e 125 175
e 125 176
e 125 186
e 125 191
e 125 194
e 126 129
e 126 133
e 126 135
e 126 136
e 126 139
e 126 147
e 126 158
e 126 162
e 126 170
e 126 171
e 126 189
e 126 191
e 127 137
e 127 139
e 127 153
e 127 154
e 127 160
e 127 164
e 127 165
e 127 170
e 127 176
e 127 178
e 127 179
e 127 181
e 127 183
e 127 184
e 127 186
e 127 188
e 127 189
e 127 193
e 128 140
e 128 141
e 128 142
e 128 147
e 128 151
e 128 154
e 128 167
e 128 172
e 128 173
e 128 174
e 128 180
e 128 186
e 128 188
e 128 189
e 128 192
e 128 193
e 129 133
e 129 142
e 129 143
e 129 146
e 129 147
e 129 148
e 129 155
e 129 165
e 129 172
e 129 176
e 129 177
e 129 182
e 130 140
e 130 143
e 130 152
e 130 153
e 130 156
e 130 160
e 130 164
e 130 166
e 130 167
e 130 171
e 130 172
e 130 179
e 130 188
e 130 192
e 130 195
e 130 196
e 131 132
e 131 137
e 131 143
e 131 153
e 131 154
e 131 157
e 131 159
e 131 162
e 131 169
e 131 174
e 131 178
e 131 187
e 131 188
e 131 193
e 132 133
e 132 138
e 132 139
e 132 148
e 132 150
e 132 154
e 132 159
e 132 162
e 132 163
e 132 165
e 132 171
e 132 174
e 132 180
e 132 184
e 132 190
e 132 191
e 132 193
e 132 196
e 133 139
e 133 144
e 133 145
e 133 146
e 133 147
e 133 150
e 133 151
e 133 154
e 133 163
e 133 173
e 133 179
e 133 182
e 133 185
e 133 190
e 133 192
e 133 194
e 133 196
e 134 135
e 134 136
e 134 137
e 134 143
e 134 147
e 134 151
e 134 157
e 134 158
e 134 163
e 134 167
e 134 174
e 134 178
e 134 180
e 134 181
e 134 182
e 134 190
e 135 136
e 135 147
e 135 157
e 135 158
e 135 161
e 135 163
e 135 169
e 135 180
e 135 181
e 135 182
e 135 191
e 136 138
e 136 158
e 136 162
e 136 167
e 136 169
e 136 170
e 136 171
e 136 174
e 136 178
e 136 185
e 136 190
e 137 143
e 137 144
e 137 151
e 137 155
e 137 160
e 137 163
e 137 164
e 137 169
e 137 174
e 137 180
e 137 184
e 137 188
e 137 190
e 138 144
e 138 148
e 138 149
e 138 152
e 138 153
e 138 158
e 138 161
e 138 164
e 138 169
e 138 173
e 138 174
e 138 177
e 138 184
e 138 185
e 138 191
e 139 142
e 139 145
e 139 149
e 139 150
e 139 153
e 139 154
e 139 158
e 139 163
e 139 181
e 139 189
e 139 190
e 139 196
e 140 146
e 140 152
e 140 154
e 140 159
e 140 164
e 140 166
e 140 167
e 140 174
e 140 175
e 140 176
e 140 180
e 140 187
e 140 189
e 140 191
e 140 192
e 141 145
e 141 147
e 141 155
e 141 156
e 141 164
e 141 165
e 141 166
e 141 168
e 141 172
e 141 178
e 141 186
e 141 187
e 141 194
e 142 143
e 142 145
e 142 148
e 142 149
e 142 151
e 142 155
e 142 167
e 142 176
e 142 177
e 142 183
e 142 188
e 143 148
e 143 153
e 143 155
e 143 169
e 143 174
e 143 176
e 143 177
e 143 196
e 144 145
e 144 146
e 144 149
e 144 152
e 144 153
e 144 155
e 144 161
e 144 164
e 144 173
e 144 176
e 144 177
e 144 179
e 144 180
e 144 182
e 144 190
e 145 146
e 145 149
e 145 155
e 145 172
e 145 175
e 145 177
e 145 179
e 145 182
e 145 187
e 146 152
e 146 159
e 146 165
e 146 166
e 146 179
e 146 182
e 146 187
e 146 196
e 147 157
e 147 158
e 147 175
e 147 180
e 147 181
e 147 182
e 147 186
e 148 155
e 148 159
e 148 174
e 148 176
e 148 177
e 148 179
e 148 184
e 148 191
e 148 194
e 149 152
e 149 153
e 149 161
e 149 164
e 149 169
e 149 173
e 149 177
e 149 183
e 149 195
e 149 196
e 150 154
e 150 160
e 150 161
e 150 163
e 150 167
e 150 168
e 150 170
e 150 189
e 150 190
e 150 196
e 151 163
e 151 167
e 151 173
e 151 175
e 151 185
e 151 186
e 151 188
e 151 192
e 151 194
e 152 153
e 152 159
e 152 161
e 152 164
e 152 166
e 152 171
e 152 172
e 152 173
e 152 177
e 152 187
e 152 188
e 153 161
e 153 164
e 153 173
e 153 177
e 153 178
e 153 181
e 153 187
e 153 188
e 153 196
e 154 157
e 154 163
e 154 165
e 154 170
e 154 174
e 154 176
e 154 179
e 154 180
e 154 189
e 154 190
e 154 192
e 154 196
e 155 172
e 155 176
e 155 177
e 155 180
e 155 187
e 155 190
e 155 191
e 156 157
e 156 160
e 156 166
e 156 168
e 156 173
e 156 179
e 156 184
e 156 186
e 156 187
e 156 190
e 156 192
e 156 195
e 157 158
e 157 163
e 157 171
e 157 173
e 157 180
e 157 181
e 157 182
e 157 184
e 157 186
e 157 187
e 157 190
e 158 180
e 158 181
e 158 182
e 158 183
e 158 185
e 158 189
e 159 160
e 159 162
e 159 166
e 159 187
e 159 193
e 159 194
e 160 161
e 160 164
e 160 166
e 160 167
e 160 168
e 160 170
e 160 179
e 160 184
e 160 188
e 160 192
e 160 195
e 161 163
e 161 164
e 161 166
e 161 167
e 161 168
e 161 170
e 161 173
e 161 177
e 162 170
e 162 171
e 162 177
e 162 185
e 162 193
e 162 195
e 163 171
e 163 190
e 163 196
e 164 165
e 164 166
e 164 167
e 164 173
e 164 177
e 164 178
e 164 184
e 164 188
e 164 194
e 165 166
e 165 170
e 165 171
e 165 176
e 165 178
e 165 179
e 165 180
e 165 194
e 166 178
e 166 179
e 166 187
e 166 192
e 166 194
e 166 195
e 167 168
e 167 170
e 167 174
e 167 178
e 167 188
e 167 190
e 168 170
e 168 181
e 168 184
e 168 185
e 168 193
e 169 174
e 169 183
e 169 195
e 169 196
e 170 171
e 170 176
e 170 179
e 171 172
e 171 180
e 171 188
e 172 173
e 172 182
e 172 187
e 172 188
e 172 193
e 173 177
e 173 184
e 173 185
e 173 186
e 173 187
e 173 190
e 173 192
e 173 193
e 173 194
e 174 178
e 174 180
e 174 184
e 174 189
e 174 190
e 174 191
e 174 192
e 175 176
e 175 177
e 175 186
e 175 191
e 176 177
e 176 179
e 176 191
e 177 185
e 177 195
e 178 183
e 178 186
e 178 187
e 178 188
e 178 189
e 178 190
e 178 193
e 178 194
e 179 182
e 179 192
e 179 195
e 180 181
e 180 182
e 180 189
e 180 190
e 180 192
e 181 182
e 181 193
e 183 186
e 183 189
e 183 193
e 183 195
e 183 196
e 184 185
e 184 186
e 184 187
e 184 188
e 184 190
e 184 191
e 185 192
e 185 194
e 185 195
e 186 187
e 186 189
e 186 190
e 186 193
e 187 188
e 187 190
e 189 192
e 189 193
e 190 196
e 192 194
e 192 195
e 195 196
